1472
0 88 165 321 438 523 612 689 799 891 
0 88 259 354 429 523 589 681 788 882 
0 156 247 373 438 502 587 665 759 814 
0 94 230 429 528 582 657 723 799 862 
0 88 176 258 353 612 730 825 951 1018 
0 176 257 328 440 679 882 951 1013 1092 
94 144 257 354 452 589 814 893 992 1044 
528 657 730 880 931 1051 1145 1230 1296 1393 
0 94 188 269 505 931 1021 1145 1203 1296 
138 188 291 373 440 496 825 883 992 1051 
